c "489492.clq"
p edge 150 584
e 1 5
e 1 6
e 1 8
e 1 9
e 1 11
e 1 12
e 1 13
e 1 17
e 1 23
e 1 26
e 1 28
e 1 33
e 1 35
e 1 44
e 1 48
e 1 49
e 1 52
e 1 58
e 1 65
e 1 67
e 1 85
e 1 100
e 1 104
e 1 105
e 1 111
e 1 114
e 1 116
e 1 122
e 1 130
e 1 131
e 1 137
e 2 5
e 2 6
e 2 7
e 2 13
e 2 38
e 2 63
e 2 99
e 2 105
e 2 117
e 2 142
e 3 5
e 3 6
e 3 7
e 3 8
e 3 9
e 3 10
e 3 14
e 3 22
e 3 33
e 3 47
e 3 52
e 3 55
e 3 66
e 3 96
e 3 98
e 3 110
e 3 115
e 3 134
e 4 5
e 4 10
e 4 12
e 4 32
e 4 79
e 4 143
e 5 6
e 5 7
e 5 8
e 5 9
e 5 10
e 5 11
e 5 12
e 5 15
e 5 16
e 5 19
e 5 23
e 5 26
e 5 30
e 5 34
e 5 43
e 5 46
e 5 51
e 5 59
e 5 61
e 5 68
e 5 75
e 5 83
e 5 97
e 5 106
e 5 128
e 5 129
e 5 130
e 5 145
e 5 150
e 6 7
e 6 8
e 6 12
e 6 13
e 6 14
e 6 15
e 6 16
e 6 18
e 6 20
e 6 21
e 6 22
e 6 23
e 6 25
e 6 27
e 6 30
e 6 31
e 6 36
e 6 39
e 6 47
e 6 50
e 6 74
e 6 77
e 6 80
e 6 83
e 6 101
e 6 115
e 6 124
e 6 129
e 6 130
e 6 131
e 6 132
e 6 144
e 6 149
e 7 9
e 7 10
e 7 17
e 7 19
e 7 20
e 7 22
e 7 27
e 7 41
e 7 57
e 7 70
e 7 80
e 7 87
e 7 91
e 7 138
e 7 147
e 8 11
e 8 23
e 8 38
e 8 40
e 8 45
e 8 61
e 8 62
e 8 66
e 8 71
e 8 76
e 8 91
e 8 101
e 8 133
e 8 138
e 9 11
e 9 14
e 9 15
e 9 19
e 9 20
e 9 22
e 9 24
e 9 25
e 9 28
e 9 29
e 9 31
e 9 36
e 9 40
e 9 49
e 9 52
e 9 53
e 9 62
e 9 70
e 9 73
e 9 76
e 9 79
e 9 81
e 9 83
e 9 86
e 9 88
e 9 91
e 9 109
e 9 120
e 9 125
e 9 127
e 9 128
e 9 129
e 10 16
e 10 91
e 10 119
e 11 17
e 11 38
e 11 44
e 11 121
e 11 122
e 11 140
e 12 13
e 12 15
e 12 16
e 12 18
e 12 25
e 12 26
e 12 27
e 12 28
e 12 29
e 12 33
e 12 34
e 12 39
e 12 41
e 12 45
e 12 50
e 12 55
e 12 63
e 12 71
e 12 73
e 12 80
e 12 81
e 12 87
e 12 88
e 12 98
e 12 104
e 12 111
e 12 114
e 12 120
e 12 129
e 12 133
e 12 138
e 12 139
e 12 142
e 12 144
e 13 14
e 13 19
e 13 20
e 13 24
e 13 32
e 13 36
e 13 41
e 13 49
e 13 57
e 13 67
e 13 69
e 13 92
e 13 116
e 13 122
e 13 139
e 13 142
e 13 143
e 13 148
e 14 18
e 14 28
e 14 40
e 14 42
e 14 53
e 14 56
e 14 78
e 14 108
e 14 114
e 14 118
e 14 128
e 14 149
e 15 45
e 15 46
e 15 81
e 16 17
e 16 21
e 16 26
e 16 33
e 16 34
e 16 37
e 16 49
e 16 59
e 16 82
e 16 92
e 16 100
e 16 109
e 16 111
e 16 143
e 17 18
e 17 21
e 17 30
e 17 40
e 17 42
e 17 48
e 17 54
e 17 79
e 17 140
e 18 25
e 18 29
e 18 30
e 18 35
e 18 36
e 18 39
e 18 42
e 18 72
e 18 102
e 18 131
e 19 24
e 19 31
e 19 32
e 19 35
e 19 58
e 19 71
e 19 98
e 19 108
e 19 115
e 19 120
e 19 141
e 19 149
e 20 21
e 20 31
e 20 39
e 20 56
e 20 63
e 20 64
e 20 73
e 20 82
e 20 107
e 20 119
e 20 147
e 21 27
e 21 48
e 21 57
e 21 64
e 21 65
e 21 74
e 21 77
e 21 93
e 22 37
e 22 45
e 22 50
e 22 85
e 22 93
e 22 95
e 22 123
e 23 24
e 23 43
e 23 50
e 23 72
e 23 100
e 23 108
e 23 114
e 23 132
e 23 149
e 24 32
e 24 38
e 24 41
e 24 44
e 24 54
e 24 62
e 24 79
e 24 127
e 25 67
e 25 71
e 25 94
e 25 97
e 25 124
e 25 137
e 26 29
e 26 96
e 27 37
e 27 108
e 27 139
e 28 52
e 28 60
e 28 61
e 28 62
e 28 77
e 28 89
e 28 101
e 28 139
e 28 140
e 29 53
e 29 55
e 29 60
e 29 103
e 29 123
e 29 124
e 30 34
e 30 46
e 30 51
e 30 53
e 30 55
e 30 56
e 30 59
e 30 69
e 30 76
e 30 82
e 30 84
e 30 88
e 30 96
e 31 43
e 31 116
e 32 35
e 32 54
e 32 87
e 32 89
e 32 95
e 32 119
e 33 37
e 33 51
e 33 64
e 33 80
e 33 95
e 33 106
e 33 107
e 33 110
e 33 121
e 34 47
e 34 58
e 34 69
e 34 87
e 34 101
e 34 104
e 34 106
e 34 115
e 35 51
e 35 70
e 35 89
e 35 130
e 35 136
e 37 43
e 37 58
e 37 86
e 37 96
e 38 47
e 38 59
e 38 118
e 39 42
e 39 94
e 40 46
e 40 48
e 40 76
e 40 90
e 40 113
e 41 84
e 41 99
e 41 112
e 41 125
e 42 44
e 42 113
e 43 56
e 43 69
e 43 73
e 43 112
e 44 84
e 44 127
e 44 141
e 44 146
e 45 72
e 45 105
e 45 110
e 45 113
e 45 150
e 46 66
e 46 118
e 46 128
e 47 68
e 47 75
e 47 85
e 47 94
e 47 98
e 47 99
e 47 103
e 47 112
e 47 121
e 47 124
e 47 125
e 47 136
e 47 144
e 47 145
e 47 148
e 48 66
e 48 90
e 48 100
e 48 102
e 48 126
e 49 75
e 51 54
e 51 70
e 51 89
e 51 99
e 52 57
e 52 68
e 52 147
e 53 65
e 53 95
e 53 109
e 54 105
e 54 133
e 55 61
e 55 112
e 56 60
e 56 65
e 56 82
e 56 122
e 57 74
e 57 103
e 57 117
e 57 146
e 58 78
e 59 60
e 59 63
e 59 90
e 60 85
e 61 64
e 61 74
e 61 78
e 61 83
e 61 88
e 61 134
e 61 138
e 61 150
e 63 72
e 63 97
e 63 148
e 64 116
e 65 68
e 65 134
e 66 67
e 67 135
e 68 92
e 69 75
e 71 78
e 71 107
e 71 135
e 71 141
e 73 77
e 73 86
e 74 90
e 74 109
e 76 86
e 77 92
e 78 81
e 78 84
e 78 93
e 78 123
e 78 133
e 79 119
e 80 111
e 80 121
e 80 142
e 80 148
e 81 141
e 83 94
e 83 113
e 85 103
e 86 120
e 86 145
e 87 97
e 87 146
e 88 93
e 88 136
e 89 102
e 89 137
e 90 140
e 90 150
e 93 102
e 93 106
e 93 134
e 94 144
e 95 104
e 95 147
e 96 110
e 97 125
e 97 127
e 98 107
e 102 117
e 102 135
e 105 143
e 112 146
e 113 117
e 113 118
e 113 123
e 113 126
e 119 132
e 119 135
e 120 126
e 120 131
e 124 132
e 125 126
e 128 136
e 130 137
e 141 145
